150 1103
1 3 -1
1 4 1
1 43 1
1 67 1
1 86 1
1 105 -1
1 112 -1
1 114 -1
2 3 -1
2 10 -1
2 16 1
2 32 1
2 48 -1
2 65 -1
2 68 -1
2 121 -1
2 122 -1
2 133 1
2 134 -1
2 138 1
2 140 -1
3 4 -1
3 6 1
3 31 -1
3 32 1
3 39 1
3 56 1
3 58 1
3 60 1
3 66 1
3 72 -1
3 75 1
3 84 1
3 85 -1
3 105 1
3 107 1
3 110 -1
3 131 -1
4 10 -1
4 35 1
4 41 1
4 52 -1
4 69 -1
4 70 1
4 71 -1
4 76 -1
4 82 1
4 86 -1
4 89 -1
4 94 1
4 98 -1
4 121 1
4 126 1
4 136 -1
4 144 1
5 15 -1
5 45 -1
5 73 1
5 74 1
5 84 1
5 89 -1
5 117 -1
5 120 1
5 126 -1
5 131 -1
5 132 1
5 145 -1
5 150 -1
6 13 1
6 19 -1
6 21 1
6 28 -1
6 33 1
6 46 -1
6 56 -1
6 76 -1
6 90 -1
6 92 1
6 95 1
6 117 1
6 134 -1
6 146 1
7 38 1
7 42 1
7 49 -1
7 62 -1
7 66 1
7 95 -1
7 98 1
7 105 1
7 118 1
7 119 -1
7 123 1
7 140 1
7 147 1
7 148 1
7 149 -1
8 10 1
8 18 -1
8 32 1
8 35 1
8 38 -1
8 47 1
8 53 -1
8 71 1
8 83 1
8 100 1
8 129 1
8 141 1
9 34 1
9 52 1
9 72 1
9 73 -1
9 78 1
9 99 1
9 103 1
9 110 -1
9 118 -1
9 126 1
9 130 1
10 85 1
10 93 -1
10 99 1
10 110 -1
10 145 -1
11 37 1
11 58 -1
11 66 1
11 82 -1
11 85 -1
11 91 -1
11 97 1
11 100 1
11 103 1
11 105 -1
11 106 -1
11 131 -1
12 21 -1
12 41 1
12 46 1
12 47 -1
12 64 -1
12 66 -1
12 77 -1
12 82 -1
12 88 1
12 111 1
12 113 1
12 120 -1
12 125 -1
12 131 1
13 20 1
13 28 -1
13 34 -1
13 54 -1
13 57 -1
13 61 1
13 70 1
13 77 -1
13 86 1
13 98 -1
13 100 1
13 102 -1
13 108 1
13 120 1
13 121 1
13 136 -1
13 147 -1
14 19 1
14 43 1
14 46 -1
14 49 -1
14 50 -1
14 99 -1
14 118 -1
14 127 -1
14 141 -1
15 22 1
15 26 1
15 29 -1
15 44 1
15 58 1
15 71 1
15 82 1
15 83 1
15 96 -1
15 115 -1
15 124 -1
15 146 1
15 148 1
16 27 1
16 43 -1
16 61 -1
16 62 -1
16 82 1
16 111 1
16 114 1
16 118 1
16 126 -1
16 128 -1
16 135 -1
16 141 1
16 150 -1
17 21 -1
17 30 -1
17 43 -1
17 57 -1
17 80 -1
17 107 -1
17 123 -1
17 143 -1
17 146 -1
17 148 1
18 27 -1
18 63 -1
18 65 1
18 68 -1
18 85 1
18 106 1
18 128 1
19 26 1
19 27 -1
19 50 -1
19 52 1
19 53 -1
19 64 -1
19 68 -1
19 95 -1
19 110 -1
19 116 -1
19 130 1
19 139 1
20 32 1
20 37 -1
20 38 -1
20 57 1
20 63 -1
20 66 1
20 90 -1
20 95 1
20 97 -1
20 102 1
20 106 1
20 118 1
20 132 1
20 140 1
21 35 1
21 43 -1
21 49 1
21 59 -1
21 76 1
21 82 1
21 110 -1
21 113 1
21 141 -1
21 149 -1
21 150 -1
22 29 -1
22 36 1
22 38 1
22 40 1
22 41 1
22 46 -1
22 70 1
22 80 1
22 81 -1
22 87 1
22 91 -1
22 100 1
22 105 1
22 116 -1
22 118 1
22 128 1
22 129 -1
22 135 1
22 138 1
22 148 -1
23 25 1
23 73 -1
23 85 1
23 93 1
23 104 -1
23 108 1
23 128 -1
23 133 -1
23 134 1
23 138 1
23 139 -1
24 25 -1
24 30 1
24 37 -1
24 40 -1
24 41 1
24 55 1
24 68 1
24 83 1
24 121 1
24 129 -1
25 37 -1
25 65 1
25 75 1
25 92 1
25 97 1
25 100 -1
25 107 -1
25 110 -1
25 114 -1
25 122 1
25 137 -1
25 141 -1
25 145 1
26 37 1
26 39 -1
26 63 -1
26 65 1
26 75 1
26 98 -1
26 101 -1
26 102 1
26 111 -1
26 113 -1
26 132 -1
26 146 -1
27 36 1
27 43 1
27 55 1
27 59 -1
27 71 -1
27 76 -1
27 86 1
27 98 -1
27 111 -1
27 115 1
27 127 -1
27 130 -1
27 131 -1
27 134 1
27 147 1
28 38 1
28 56 1
28 59 -1
28 62 -1
28 66 1
28 72 1
28 79 -1
28 88 1
28 93 1
28 111 1
28 120 -1
28 122 -1
28 125 1
28 127 1
28 130 -1
28 141 -1
29 35 1
29 46 1
29 52 1
29 63 1
29 82 -1
29 84 1
29 86 -1
29 88 1
29 110 1
29 122 1
29 131 1
29 144 -1
30 35 -1
30 52 -1
30 72 1
30 82 -1
30 84 1
30 87 -1
30 103 1
30 125 1
30 138 -1
30 145 -1
31 34 -1
31 39 1
31 46 1
31 64 1
31 75 -1
31 76 1
31 89 -1
31 96 -1
31 109 1
31 110 1
31 117 1
31 120 -1
31 123 -1
31 134 1
32 33 1
32 63 1
32 75 1
32 77 -1
32 81 1
32 97 -1
32 99 -1
32 103 -1
32 135 -1
33 40 -1
33 45 1
33 54 -1
33 59 1
33 61 1
33 63 -1
33 79 -1
33 83 -1
33 92 -1
33 100 1
33 112 -1
33 113 1
33 121 1
33 123 1
33 130 1
34 42 -1
34 45 -1
34 56 -1
34 60 1
34 71 1
34 87 1
34 90 -1
34 116 1
34 136 1
34 140 1
34 143 1
35 53 -1
35 67 -1
35 76 1
35 81 1
35 95 -1
35 97 1
35 114 1
35 136 1
35 138 1
35 148 -1
35 149 -1
36 54 -1
36 55 -1
36 69 -1
36 72 -1
36 77 1
36 83 1
36 84 1
36 85 -1
36 104 1
36 106 1
36 107 1
36 128 -1
36 135 -1
37 49 -1
37 62 -1
37 66 1
37 91 -1
37 92 1
37 94 -1
37 114 1
37 126 1
37 141 -1
37 145 1
38 52 1
38 67 -1
38 94 -1
38 115 1
38 145 -1
39 42 1
39 55 1
39 79 1
39 80 1
39 83 1
39 85 -1
39 109 1
39 111 -1
39 112 -1
39 119 1
39 142 -1
40 41 -1
40 46 -1
40 53 1
40 62 1
40 110 1
40 143 1
41 70 1
41 84 1
41 91 -1
41 93 1
41 108 1
41 112 1
41 114 1
41 138 1
41 146 1
41 150 -1
42 48 1
42 64 1
42 66 -1
42 67 -1
42 71 1
42 72 -1
42 94 1
42 97 -1
42 99 1
42 104 1
42 113 1
42 131 1
43 46 -1
43 51 1
43 54 -1
43 61 -1
43 73 -1
43 74 1
43 79 -1
43 90 -1
43 91 1
43 106 1
43 115 1
43 116 1
43 127 1
43 133 -1
43 134 -1
43 143 -1
43 148 -1
44 46 1
44 48 1
44 56 1
44 61 -1
44 67 1
44 68 1
44 81 1
44 82 1
44 91 -1
44 93 1
44 100 1
44 110 1
44 122 -1
44 131 -1
44 135 1
44 148 -1
45 49 1
45 50 1
45 57 -1
45 64 1
45 77 1
45 81 -1
45 121 -1
46 51 1
46 69 -1
46 88 -1
46 91 1
46 104 -1
46 126 1
46 142 1
46 146 1
47 60 1
47 75 -1
47 82 -1
47 87 1
47 99 -1
47 116 1
47 121 1
47 122 1
47 147 1
48 82 -1
48 99 -1
48 118 -1
48 127 -1
48 131 -1
48 140 -1
49 53 -1
49 63 -1
49 96 1
49 97 1
49 116 1
49 122 -1
49 123 -1
49 146 1
50 82 1
50 89 -1
50 103 -1
50 109 1
50 110 1
50 120 -1
50 123 -1
50 126 -1
50 133 -1
50 139 -1
50 141 1
50 144 1
51 103 -1
51 117 -1
51 118 1
51 120 -1
51 136 1
52 56 1
52 62 -1
52 72 -1
52 76 1
52 81 1
52 86 1
52 106 -1
52 144 -1
52 150 -1
53 61 -1
53 64 1
53 77 1
53 84 1
53 86 1
53 104 1
53 115 -1
53 117 1
53 143 -1
54 57 1
54 65 -1
54 66 1
54 77 -1
54 96 1
54 97 -1
54 99 -1
54 104 1
54 111 1
54 117 -1
54 130 -1
54 131 -1
54 136 -1
54 144 -1
55 72 1
55 74 1
55 85 -1
55 130 -1
55 144 1
56 62 -1
56 115 -1
56 150 1
57 58 1
57 61 -1
57 67 -1
57 96 -1
57 102 1
57 103 -1
57 124 -1
57 127 1
57 144 1
58 73 -1
58 77 1
58 116 -1
58 135 1
58 136 1
59 60 1
59 65 -1
59 76 1
59 78 1
59 90 1
59 93 -1
59 101 -1
59 103 -1
59 116 -1
59 117 -1
59 133 -1
60 67 -1
60 91 1
60 93 1
60 110 1
60 121 1
61 78 1
61 84 -1
61 98 1
61 101 -1
61 103 1
61 104 -1
61 118 1
61 119 -1
61 122 1
61 129 -1
61 140 -1
61 146 -1
61 147 -1
62 66 -1
62 73 1
62 88 1
62 123 1
62 127 -1
62 141 1
62 144 -1
62 145 1
62 146 1
63 67 -1
63 92 -1
63 94 1
63 99 1
63 117 1
63 124 1
63 138 1
63 142 1
64 66 -1
64 72 1
64 88 -1
64 92 -1
64 94 -1
64 108 1
64 122 -1
64 128 1
64 141 -1
64 142 1
64 147 -1
65 77 -1
65 86 1
65 107 -1
65 110 -1
65 112 -1
65 114 1
65 115 1
65 125 1
65 130 1
65 132 -1
65 135 -1
66 83 -1
66 97 1
66 100 -1
66 101 1
66 114 1
66 119 -1
66 121 1
66 138 1
66 149 1
67 68 -1
67 79 1
67 95 1
67 105 -1
67 123 1
67 124 1
67 149 1
68 70 1
68 89 1
68 92 1
68 96 -1
68 103 1
68 124 1
68 130 1
68 134 -1
68 138 1
69 98 -1
69 105 -1
69 107 1
69 108 1
69 120 1
69 141 -1
70 99 -1
70 100 1
70 112 -1
70 114 -1
70 119 -1
70 140 -1
70 143 1
71 89 1
71 107 -1
71 116 -1
71 129 1
71 130 1
71 134 -1
72 74 -1
72 81 1
72 97 -1
72 102 1
72 121 -1
73 90 -1
73 97 1
73 109 -1
73 110 -1
73 113 -1
73 121 1
73 132 -1
73 135 1
73 140 -1
74 76 1
74 92 1
74 110 1
74 127 1
74 129 -1
74 134 -1
74 139 1
74 144 -1
75 78 -1
75 83 1
75 106 -1
75 108 1
75 110 1
75 112 1
75 118 1
75 139 1
75 146 -1
75 147 1
76 77 1
76 80 -1
76 86 -1
76 101 -1
76 107 1
76 115 -1
76 117 1
76 123 -1
76 146 1
77 79 -1
77 86 1
77 100 1
77 135 -1
77 142 1
77 146 1
78 81 -1
78 98 1
78 101 1
78 105 1
78 109 -1
78 110 1
78 119 1
78 125 1
78 134 -1
79 105 -1
79 119 -1
79 123 -1
79 125 1
79 126 1
79 131 1
79 135 -1
79 142 -1
79 143 1
79 148 1
80 99 -1
80 101 -1
80 102 1
80 119 -1
80 125 1
80 128 -1
80 129 -1
80 130 1
80 135 1
80 141 1
81 90 -1
81 93 1
81 96 -1
81 107 -1
81 110 1
81 133 1
81 144 -1
81 149 -1
82 83 1
82 120 1
82 122 1
82 139 -1
82 147 1
83 94 -1
83 108 1
83 120 1
83 131 -1
84 108 1
84 109 -1
84 124 1
84 130 -1
84 140 1
84 142 -1
85 89 1
85 96 -1
85 100 1
85 118 1
85 123 1
85 125 -1
85 129 1
85 131 1
85 143 1
86 118 -1
86 121 1
86 128 -1
86 135 1
86 143 -1
86 150 -1
87 88 1
87 91 -1
87 94 1
87 99 -1
87 107 1
87 109 1
87 112 -1
87 129 1
87 133 1
87 141 -1
87 142 1
87 144 1
88 89 1
88 108 1
88 117 -1
88 128 -1
88 131 -1
88 135 1
88 137 -1
88 143 -1
89 107 1
89 110 -1
89 113 1
89 126 1
89 128 -1
89 139 1
90 93 -1
90 107 1
90 108 1
90 113 1
90 119 1
90 131 -1
90 137 -1
90 140 1
90 149 -1
91 94 1
91 101 -1
91 122 -1
91 126 -1
91 128 -1
91 134 -1
91 144 1
91 146 1
91 148 -1
92 112 1
92 114 1
92 118 1
92 133 1
92 134 1
92 135 -1
93 95 1
93 99 1
93 110 1
93 118 -1
93 123 1
93 124 -1
93 129 1
93 139 1
94 103 1
94 111 1
94 124 1
94 127 1
94 149 1
94 150 -1
95 100 1
95 103 -1
95 109 -1
95 111 -1
95 134 1
95 137 -1
95 141 -1
96 111 1
96 116 1
96 121 1
96 122 1
96 127 -1
96 131 1
96 139 1
97 99 1
97 117 -1
97 123 1
97 138 1
97 145 1
97 148 1
98 105 1
98 113 -1
98 124 1
98 149 1
99 103 1
99 109 1
99 119 -1
99 120 -1
99 121 -1
99 124 1
99 126 -1
99 127 1
99 137 1
100 107 1
100 114 -1
100 121 1
100 130 1
100 134 1
100 146 -1
101 112 -1
101 117 1
101 129 1
101 130 -1
101 135 1
101 136 1
102 108 -1
102 113 1
103 107 -1
103 111 -1
103 116 -1
103 130 -1
103 132 1
103 142 1
104 112 -1
104 113 1
104 143 -1
104 147 1
105 126 1
105 128 1
105 144 -1
105 146 1
106 114 -1
106 137 1
106 144 1
106 150 -1
107 124 -1
107 131 1
107 135 1
107 144 -1
107 147 -1
107 148 -1
108 109 1
108 121 -1
108 123 -1
108 126 -1
108 128 1
108 134 1
109 110 -1
109 116 1
109 119 -1
109 122 1
109 146 1
110 114 1
110 138 -1
110 142 1
110 143 -1
110 148 -1
110 150 1
111 113 1
111 118 1
111 141 1
111 145 -1
112 114 1
112 115 -1
112 116 -1
112 117 1
112 127 -1
112 144 1
112 148 -1
113 114 1
113 127 1
113 145 -1
114 133 1
114 141 1
114 142 -1
114 146 -1
114 150 1
115 147 -1
115 148 -1
115 150 -1
116 122 -1
116 124 1
116 140 -1
117 121 1
117 131 1
117 148 -1
118 128 -1
118 129 1
118 138 -1
119 122 1
119 123 -1
119 132 -1
119 136 1
120 123 1
120 134 -1
120 144 1
120 150 -1
121 124 -1
121 125 1
121 143 1
122 127 1
122 138 -1
122 146 1
123 147 1
124 129 1
124 137 1
124 144 1
125 127 1
125 129 1
125 130 1
125 140 -1
125 146 -1
125 148 1
126 140 1
127 129 1
127 136 1
127 138 -1
128 129 1
129 136 -1
129 150 -1
130 133 -1
130 144 1
130 146 -1
132 137 1
132 140 -1
132 149 1
133 134 1
133 148 -1
134 137 1
135 137 -1
135 142 -1
136 149 -1
137 144 1
137 146 -1
138 144 1
139 144 -1
140 146 -1
141 146 1
